
(set-option :produce-models true)
(set-option :inline-size-limit 10000)

(declare-const var0 String)

(push 1)
(assert (str.in.re var0 (re.* (re.range "\x01" "\xff"))))
(assert (str.in.re var0 (re.++ (re.*? re.allchar) (re.++ ((_ re.capture 1) (re.union (re.union (re.union (re.union (re.union (re.union (re.union (re.union (re.++ (str.to.re ":") (str.to.re ":")) (re.++ ((_ re.loop 0 7) ((_ re.capture 2) (re.++ ((_ re.capture 3) ((_ re.loop 1 4) (re.union (re.range "a" "f") (re.union (re.range "A" "F") (re.range "0" "9"))))) (str.to.re ":")))) ((_ re.capture 4) ((_ re.capture 5) ((_ re.loop 1 4) (re.union (re.range "a" "f") (re.union (re.range "A" "F") (re.range "0" "9")))))))) ((_ re.capture 6) (re.++ (str.to.re ":") ((_ re.loop 1 6) ((_ re.capture 7) (re.++ (str.to.re ":") ((_ re.capture 8) ((_ re.loop 1 4) (re.union (re.range "a" "f") (re.union (re.range "A" "F") (re.range "0" "9"))))))))))) ((_ re.capture 9) (re.++ ((_ re.loop 1 6) ((_ re.capture 10) (re.++ ((_ re.capture 11) ((_ re.loop 1 4) (re.union (re.range "a" "f") (re.union (re.range "A" "F") (re.range "0" "9"))))) (str.to.re ":")))) (str.to.re ":")))) ((_ re.capture 12) (re.++ ((_ re.capture 13) (re.++ ((_ re.capture 14) ((_ re.loop 1 4) (re.union (re.range "a" "f") (re.union (re.range "A" "F") (re.range "0" "9"))))) (str.to.re ":"))) ((_ re.loop 1 6) ((_ re.capture 15) (re.++ (str.to.re ":") ((_ re.capture 16) ((_ re.loop 1 4) (re.union (re.range "a" "f") (re.union (re.range "A" "F") (re.range "0" "9"))))))))))) ((_ re.capture 17) (re.++ ((_ re.loop 0 2) ((_ re.capture 18) (re.++ ((_ re.capture 19) ((_ re.loop 1 4) (re.union (re.range "a" "f") (re.union (re.range "A" "F") (re.range "0" "9"))))) (str.to.re ":")))) ((_ re.loop 1 5) ((_ re.capture 20) (re.++ (str.to.re ":") ((_ re.capture 21) ((_ re.loop 1 4) (re.union (re.range "a" "f") (re.union (re.range "A" "F") (re.range "0" "9"))))))))))) ((_ re.capture 22) (re.++ ((_ re.loop 0 3) ((_ re.capture 23) (re.++ ((_ re.capture 24) ((_ re.loop 1 4) (re.union (re.range "a" "f") (re.union (re.range "A" "F") (re.range "0" "9"))))) (str.to.re ":")))) ((_ re.loop 1 4) ((_ re.capture 25) (re.++ (str.to.re ":") ((_ re.capture 26) ((_ re.loop 1 4) (re.union (re.range "a" "f") (re.union (re.range "A" "F") (re.range "0" "9"))))))))))) ((_ re.capture 27) (re.++ ((_ re.loop 0 4) ((_ re.capture 28) (re.++ ((_ re.capture 29) ((_ re.loop 1 4) (re.union (re.range "a" "f") (re.union (re.range "A" "F") (re.range "0" "9"))))) (str.to.re ":")))) ((_ re.loop 1 3) ((_ re.capture 30) (re.++ (str.to.re ":") ((_ re.capture 31) ((_ re.loop 1 4) (re.union (re.range "a" "f") (re.union (re.range "A" "F") (re.range "0" "9"))))))))))) ((_ re.capture 32) (re.++ ((_ re.loop 0 5) ((_ re.capture 33) (re.++ ((_ re.capture 34) ((_ re.loop 1 4) (re.union (re.range "a" "f") (re.union (re.range "A" "F") (re.range "0" "9"))))) (str.to.re ":")))) ((_ re.loop 1 2) ((_ re.capture 35) (re.++ (str.to.re ":") ((_ re.capture 36) ((_ re.loop 1 4) (re.union (re.range "a" "f") (re.union (re.range "A" "F") (re.range "0" "9")))))))))))) re.all))))	; match!==null
(assert (not (str.in.re ((_ str.extract 1) var0 (re.++ (re.*? re.allchar) (re.++ ((_ re.capture 1) (re.union (re.union (re.union (re.union (re.union (re.union (re.union (re.union (re.++ (str.to.re ":") (str.to.re ":")) (re.++ ((_ re.loop 0 7) ((_ re.capture 2) (re.++ ((_ re.capture 3) ((_ re.loop 1 4) (re.union (re.range "a" "f") (re.union (re.range "A" "F") (re.range "0" "9"))))) (str.to.re ":")))) ((_ re.capture 4) ((_ re.capture 5) ((_ re.loop 1 4) (re.union (re.range "a" "f") (re.union (re.range "A" "F") (re.range "0" "9")))))))) ((_ re.capture 6) (re.++ (str.to.re ":") ((_ re.loop 1 6) ((_ re.capture 7) (re.++ (str.to.re ":") ((_ re.capture 8) ((_ re.loop 1 4) (re.union (re.range "a" "f") (re.union (re.range "A" "F") (re.range "0" "9"))))))))))) ((_ re.capture 9) (re.++ ((_ re.loop 1 6) ((_ re.capture 10) (re.++ ((_ re.capture 11) ((_ re.loop 1 4) (re.union (re.range "a" "f") (re.union (re.range "A" "F") (re.range "0" "9"))))) (str.to.re ":")))) (str.to.re ":")))) ((_ re.capture 12) (re.++ ((_ re.capture 13) (re.++ ((_ re.capture 14) ((_ re.loop 1 4) (re.union (re.range "a" "f") (re.union (re.range "A" "F") (re.range "0" "9"))))) (str.to.re ":"))) ((_ re.loop 1 6) ((_ re.capture 15) (re.++ (str.to.re ":") ((_ re.capture 16) ((_ re.loop 1 4) (re.union (re.range "a" "f") (re.union (re.range "A" "F") (re.range "0" "9"))))))))))) ((_ re.capture 17) (re.++ ((_ re.loop 0 2) ((_ re.capture 18) (re.++ ((_ re.capture 19) ((_ re.loop 1 4) (re.union (re.range "a" "f") (re.union (re.range "A" "F") (re.range "0" "9"))))) (str.to.re ":")))) ((_ re.loop 1 5) ((_ re.capture 20) (re.++ (str.to.re ":") ((_ re.capture 21) ((_ re.loop 1 4) (re.union (re.range "a" "f") (re.union (re.range "A" "F") (re.range "0" "9"))))))))))) ((_ re.capture 22) (re.++ ((_ re.loop 0 3) ((_ re.capture 23) (re.++ ((_ re.capture 24) ((_ re.loop 1 4) (re.union (re.range "a" "f") (re.union (re.range "A" "F") (re.range "0" "9"))))) (str.to.re ":")))) ((_ re.loop 1 4) ((_ re.capture 25) (re.++ (str.to.re ":") ((_ re.capture 26) ((_ re.loop 1 4) (re.union (re.range "a" "f") (re.union (re.range "A" "F") (re.range "0" "9"))))))))))) ((_ re.capture 27) (re.++ ((_ re.loop 0 4) ((_ re.capture 28) (re.++ ((_ re.capture 29) ((_ re.loop 1 4) (re.union (re.range "a" "f") (re.union (re.range "A" "F") (re.range "0" "9"))))) (str.to.re ":")))) ((_ re.loop 1 3) ((_ re.capture 30) (re.++ (str.to.re ":") ((_ re.capture 31) ((_ re.loop 1 4) (re.union (re.range "a" "f") (re.union (re.range "A" "F") (re.range "0" "9"))))))))))) ((_ re.capture 32) (re.++ ((_ re.loop 0 5) ((_ re.capture 33) (re.++ ((_ re.capture 34) ((_ re.loop 1 4) (re.union (re.range "a" "f") (re.union (re.range "A" "F") (re.range "0" "9"))))) (str.to.re ":")))) ((_ re.loop 1 2) ((_ re.capture 35) (re.++ (str.to.re ":") ((_ re.capture 36) ((_ re.loop 1 4) (re.union (re.range "a" "f") (re.union (re.range "A" "F") (re.range "0" "9")))))))))))) re.all))) (str.to.re "\x00"))))
;match[1]!==null
(assert (str.in.re ((_ str.extract 1) var0 (re.++ (re.*? re.allchar) (re.++ ((_ re.capture 1) (re.union (re.union (re.union (re.union (re.union (re.union (re.union (re.union (re.++ (str.to.re ":") (str.to.re ":")) (re.++ ((_ re.loop 0 7) ((_ re.capture 2) (re.++ ((_ re.capture 3) ((_ re.loop 1 4) (re.union (re.range "a" "f") (re.union (re.range "A" "F") (re.range "0" "9"))))) (str.to.re ":")))) ((_ re.capture 4) ((_ re.capture 5) ((_ re.loop 1 4) (re.union (re.range "a" "f") (re.union (re.range "A" "F") (re.range "0" "9")))))))) ((_ re.capture 6) (re.++ (str.to.re ":") ((_ re.loop 1 6) ((_ re.capture 7) (re.++ (str.to.re ":") ((_ re.capture 8) ((_ re.loop 1 4) (re.union (re.range "a" "f") (re.union (re.range "A" "F") (re.range "0" "9"))))))))))) ((_ re.capture 9) (re.++ ((_ re.loop 1 6) ((_ re.capture 10) (re.++ ((_ re.capture 11) ((_ re.loop 1 4) (re.union (re.range "a" "f") (re.union (re.range "A" "F") (re.range "0" "9"))))) (str.to.re ":")))) (str.to.re ":")))) ((_ re.capture 12) (re.++ ((_ re.capture 13) (re.++ ((_ re.capture 14) ((_ re.loop 1 4) (re.union (re.range "a" "f") (re.union (re.range "A" "F") (re.range "0" "9"))))) (str.to.re ":"))) ((_ re.loop 1 6) ((_ re.capture 15) (re.++ (str.to.re ":") ((_ re.capture 16) ((_ re.loop 1 4) (re.union (re.range "a" "f") (re.union (re.range "A" "F") (re.range "0" "9"))))))))))) ((_ re.capture 17) (re.++ ((_ re.loop 0 2) ((_ re.capture 18) (re.++ ((_ re.capture 19) ((_ re.loop 1 4) (re.union (re.range "a" "f") (re.union (re.range "A" "F") (re.range "0" "9"))))) (str.to.re ":")))) ((_ re.loop 1 5) ((_ re.capture 20) (re.++ (str.to.re ":") ((_ re.capture 21) ((_ re.loop 1 4) (re.union (re.range "a" "f") (re.union (re.range "A" "F") (re.range "0" "9"))))))))))) ((_ re.capture 22) (re.++ ((_ re.loop 0 3) ((_ re.capture 23) (re.++ ((_ re.capture 24) ((_ re.loop 1 4) (re.union (re.range "a" "f") (re.union (re.range "A" "F") (re.range "0" "9"))))) (str.to.re ":")))) ((_ re.loop 1 4) ((_ re.capture 25) (re.++ (str.to.re ":") ((_ re.capture 26) ((_ re.loop 1 4) (re.union (re.range "a" "f") (re.union (re.range "A" "F") (re.range "0" "9"))))))))))) ((_ re.capture 27) (re.++ ((_ re.loop 0 4) ((_ re.capture 28) (re.++ ((_ re.capture 29) ((_ re.loop 1 4) (re.union (re.range "a" "f") (re.union (re.range "A" "F") (re.range "0" "9"))))) (str.to.re ":")))) ((_ re.loop 1 3) ((_ re.capture 30) (re.++ (str.to.re ":") ((_ re.capture 31) ((_ re.loop 1 4) (re.union (re.range "a" "f") (re.union (re.range "A" "F") (re.range "0" "9"))))))))))) ((_ re.capture 32) (re.++ ((_ re.loop 0 5) ((_ re.capture 33) (re.++ ((_ re.capture 34) ((_ re.loop 1 4) (re.union (re.range "a" "f") (re.union (re.range "A" "F") (re.range "0" "9"))))) (str.to.re ":")))) ((_ re.loop 1 2) ((_ re.capture 35) (re.++ (str.to.re ":") ((_ re.capture 36) ((_ re.loop 1 4) (re.union (re.range "a" "f") (re.union (re.range "A" "F") (re.range "0" "9")))))))))))) re.all))) (re.++ re.all(re.+ (re.range "a" "z")) re.all) ))
;/[a-z]+/.test(match[1]) == true
(check-sat)
(get-model)
(pop 1)
(push 1)
(assert (str.in.re var0 (re.* (re.range "\x01" "\xff"))))
(assert (str.in.re var0 (re.++ (re.*? re.allchar) (re.++ ((_ re.capture 1) (re.union (re.union (re.union (re.union (re.union (re.union (re.union (re.union (re.++ (str.to.re ":") (str.to.re ":")) (re.++ ((_ re.loop 0 7) ((_ re.capture 2) (re.++ ((_ re.capture 3) ((_ re.loop 1 4) (re.union (re.range "a" "f") (re.union (re.range "A" "F") (re.range "0" "9"))))) (str.to.re ":")))) ((_ re.capture 4) ((_ re.capture 5) ((_ re.loop 1 4) (re.union (re.range "a" "f") (re.union (re.range "A" "F") (re.range "0" "9")))))))) ((_ re.capture 6) (re.++ (str.to.re ":") ((_ re.loop 1 6) ((_ re.capture 7) (re.++ (str.to.re ":") ((_ re.capture 8) ((_ re.loop 1 4) (re.union (re.range "a" "f") (re.union (re.range "A" "F") (re.range "0" "9"))))))))))) ((_ re.capture 9) (re.++ ((_ re.loop 1 6) ((_ re.capture 10) (re.++ ((_ re.capture 11) ((_ re.loop 1 4) (re.union (re.range "a" "f") (re.union (re.range "A" "F") (re.range "0" "9"))))) (str.to.re ":")))) (str.to.re ":")))) ((_ re.capture 12) (re.++ ((_ re.capture 13) (re.++ ((_ re.capture 14) ((_ re.loop 1 4) (re.union (re.range "a" "f") (re.union (re.range "A" "F") (re.range "0" "9"))))) (str.to.re ":"))) ((_ re.loop 1 6) ((_ re.capture 15) (re.++ (str.to.re ":") ((_ re.capture 16) ((_ re.loop 1 4) (re.union (re.range "a" "f") (re.union (re.range "A" "F") (re.range "0" "9"))))))))))) ((_ re.capture 17) (re.++ ((_ re.loop 0 2) ((_ re.capture 18) (re.++ ((_ re.capture 19) ((_ re.loop 1 4) (re.union (re.range "a" "f") (re.union (re.range "A" "F") (re.range "0" "9"))))) (str.to.re ":")))) ((_ re.loop 1 5) ((_ re.capture 20) (re.++ (str.to.re ":") ((_ re.capture 21) ((_ re.loop 1 4) (re.union (re.range "a" "f") (re.union (re.range "A" "F") (re.range "0" "9"))))))))))) ((_ re.capture 22) (re.++ ((_ re.loop 0 3) ((_ re.capture 23) (re.++ ((_ re.capture 24) ((_ re.loop 1 4) (re.union (re.range "a" "f") (re.union (re.range "A" "F") (re.range "0" "9"))))) (str.to.re ":")))) ((_ re.loop 1 4) ((_ re.capture 25) (re.++ (str.to.re ":") ((_ re.capture 26) ((_ re.loop 1 4) (re.union (re.range "a" "f") (re.union (re.range "A" "F") (re.range "0" "9"))))))))))) ((_ re.capture 27) (re.++ ((_ re.loop 0 4) ((_ re.capture 28) (re.++ ((_ re.capture 29) ((_ re.loop 1 4) (re.union (re.range "a" "f") (re.union (re.range "A" "F") (re.range "0" "9"))))) (str.to.re ":")))) ((_ re.loop 1 3) ((_ re.capture 30) (re.++ (str.to.re ":") ((_ re.capture 31) ((_ re.loop 1 4) (re.union (re.range "a" "f") (re.union (re.range "A" "F") (re.range "0" "9"))))))))))) ((_ re.capture 32) (re.++ ((_ re.loop 0 5) ((_ re.capture 33) (re.++ ((_ re.capture 34) ((_ re.loop 1 4) (re.union (re.range "a" "f") (re.union (re.range "A" "F") (re.range "0" "9"))))) (str.to.re ":")))) ((_ re.loop 1 2) ((_ re.capture 35) (re.++ (str.to.re ":") ((_ re.capture 36) ((_ re.loop 1 4) (re.union (re.range "a" "f") (re.union (re.range "A" "F") (re.range "0" "9")))))))))))) re.all))))	; match!==null
(assert (not (str.in.re ((_ str.extract 1) var0 (re.++ (re.*? re.allchar) (re.++ ((_ re.capture 1) (re.union (re.union (re.union (re.union (re.union (re.union (re.union (re.union (re.++ (str.to.re ":") (str.to.re ":")) (re.++ ((_ re.loop 0 7) ((_ re.capture 2) (re.++ ((_ re.capture 3) ((_ re.loop 1 4) (re.union (re.range "a" "f") (re.union (re.range "A" "F") (re.range "0" "9"))))) (str.to.re ":")))) ((_ re.capture 4) ((_ re.capture 5) ((_ re.loop 1 4) (re.union (re.range "a" "f") (re.union (re.range "A" "F") (re.range "0" "9")))))))) ((_ re.capture 6) (re.++ (str.to.re ":") ((_ re.loop 1 6) ((_ re.capture 7) (re.++ (str.to.re ":") ((_ re.capture 8) ((_ re.loop 1 4) (re.union (re.range "a" "f") (re.union (re.range "A" "F") (re.range "0" "9"))))))))))) ((_ re.capture 9) (re.++ ((_ re.loop 1 6) ((_ re.capture 10) (re.++ ((_ re.capture 11) ((_ re.loop 1 4) (re.union (re.range "a" "f") (re.union (re.range "A" "F") (re.range "0" "9"))))) (str.to.re ":")))) (str.to.re ":")))) ((_ re.capture 12) (re.++ ((_ re.capture 13) (re.++ ((_ re.capture 14) ((_ re.loop 1 4) (re.union (re.range "a" "f") (re.union (re.range "A" "F") (re.range "0" "9"))))) (str.to.re ":"))) ((_ re.loop 1 6) ((_ re.capture 15) (re.++ (str.to.re ":") ((_ re.capture 16) ((_ re.loop 1 4) (re.union (re.range "a" "f") (re.union (re.range "A" "F") (re.range "0" "9"))))))))))) ((_ re.capture 17) (re.++ ((_ re.loop 0 2) ((_ re.capture 18) (re.++ ((_ re.capture 19) ((_ re.loop 1 4) (re.union (re.range "a" "f") (re.union (re.range "A" "F") (re.range "0" "9"))))) (str.to.re ":")))) ((_ re.loop 1 5) ((_ re.capture 20) (re.++ (str.to.re ":") ((_ re.capture 21) ((_ re.loop 1 4) (re.union (re.range "a" "f") (re.union (re.range "A" "F") (re.range "0" "9"))))))))))) ((_ re.capture 22) (re.++ ((_ re.loop 0 3) ((_ re.capture 23) (re.++ ((_ re.capture 24) ((_ re.loop 1 4) (re.union (re.range "a" "f") (re.union (re.range "A" "F") (re.range "0" "9"))))) (str.to.re ":")))) ((_ re.loop 1 4) ((_ re.capture 25) (re.++ (str.to.re ":") ((_ re.capture 26) ((_ re.loop 1 4) (re.union (re.range "a" "f") (re.union (re.range "A" "F") (re.range "0" "9"))))))))))) ((_ re.capture 27) (re.++ ((_ re.loop 0 4) ((_ re.capture 28) (re.++ ((_ re.capture 29) ((_ re.loop 1 4) (re.union (re.range "a" "f") (re.union (re.range "A" "F") (re.range "0" "9"))))) (str.to.re ":")))) ((_ re.loop 1 3) ((_ re.capture 30) (re.++ (str.to.re ":") ((_ re.capture 31) ((_ re.loop 1 4) (re.union (re.range "a" "f") (re.union (re.range "A" "F") (re.range "0" "9"))))))))))) ((_ re.capture 32) (re.++ ((_ re.loop 0 5) ((_ re.capture 33) (re.++ ((_ re.capture 34) ((_ re.loop 1 4) (re.union (re.range "a" "f") (re.union (re.range "A" "F") (re.range "0" "9"))))) (str.to.re ":")))) ((_ re.loop 1 2) ((_ re.capture 35) (re.++ (str.to.re ":") ((_ re.capture 36) ((_ re.loop 1 4) (re.union (re.range "a" "f") (re.union (re.range "A" "F") (re.range "0" "9")))))))))))) re.all))) (str.to.re "\x00"))))	
;match[1]!==null
(assert (not (str.in.re ((_ str.extract 1) var0 (re.++ (re.*? re.allchar) (re.++ ((_ re.capture 1) (re.union (re.union (re.union (re.union (re.union (re.union (re.union (re.union (re.++ (str.to.re ":") (str.to.re ":")) (re.++ ((_ re.loop 0 7) ((_ re.capture 2) (re.++ ((_ re.capture 3) ((_ re.loop 1 4) (re.union (re.range "a" "f") (re.union (re.range "A" "F") (re.range "0" "9"))))) (str.to.re ":")))) ((_ re.capture 4) ((_ re.capture 5) ((_ re.loop 1 4) (re.union (re.range "a" "f") (re.union (re.range "A" "F") (re.range "0" "9")))))))) ((_ re.capture 6) (re.++ (str.to.re ":") ((_ re.loop 1 6) ((_ re.capture 7) (re.++ (str.to.re ":") ((_ re.capture 8) ((_ re.loop 1 4) (re.union (re.range "a" "f") (re.union (re.range "A" "F") (re.range "0" "9"))))))))))) ((_ re.capture 9) (re.++ ((_ re.loop 1 6) ((_ re.capture 10) (re.++ ((_ re.capture 11) ((_ re.loop 1 4) (re.union (re.range "a" "f") (re.union (re.range "A" "F") (re.range "0" "9"))))) (str.to.re ":")))) (str.to.re ":")))) ((_ re.capture 12) (re.++ ((_ re.capture 13) (re.++ ((_ re.capture 14) ((_ re.loop 1 4) (re.union (re.range "a" "f") (re.union (re.range "A" "F") (re.range "0" "9"))))) (str.to.re ":"))) ((_ re.loop 1 6) ((_ re.capture 15) (re.++ (str.to.re ":") ((_ re.capture 16) ((_ re.loop 1 4) (re.union (re.range "a" "f") (re.union (re.range "A" "F") (re.range "0" "9"))))))))))) ((_ re.capture 17) (re.++ ((_ re.loop 0 2) ((_ re.capture 18) (re.++ ((_ re.capture 19) ((_ re.loop 1 4) (re.union (re.range "a" "f") (re.union (re.range "A" "F") (re.range "0" "9"))))) (str.to.re ":")))) ((_ re.loop 1 5) ((_ re.capture 20) (re.++ (str.to.re ":") ((_ re.capture 21) ((_ re.loop 1 4) (re.union (re.range "a" "f") (re.union (re.range "A" "F") (re.range "0" "9"))))))))))) ((_ re.capture 22) (re.++ ((_ re.loop 0 3) ((_ re.capture 23) (re.++ ((_ re.capture 24) ((_ re.loop 1 4) (re.union (re.range "a" "f") (re.union (re.range "A" "F") (re.range "0" "9"))))) (str.to.re ":")))) ((_ re.loop 1 4) ((_ re.capture 25) (re.++ (str.to.re ":") ((_ re.capture 26) ((_ re.loop 1 4) (re.union (re.range "a" "f") (re.union (re.range "A" "F") (re.range "0" "9"))))))))))) ((_ re.capture 27) (re.++ ((_ re.loop 0 4) ((_ re.capture 28) (re.++ ((_ re.capture 29) ((_ re.loop 1 4) (re.union (re.range "a" "f") (re.union (re.range "A" "F") (re.range "0" "9"))))) (str.to.re ":")))) ((_ re.loop 1 3) ((_ re.capture 30) (re.++ (str.to.re ":") ((_ re.capture 31) ((_ re.loop 1 4) (re.union (re.range "a" "f") (re.union (re.range "A" "F") (re.range "0" "9"))))))))))) ((_ re.capture 32) (re.++ ((_ re.loop 0 5) ((_ re.capture 33) (re.++ ((_ re.capture 34) ((_ re.loop 1 4) (re.union (re.range "a" "f") (re.union (re.range "A" "F") (re.range "0" "9"))))) (str.to.re ":")))) ((_ re.loop 1 2) ((_ re.capture 35) (re.++ (str.to.re ":") ((_ re.capture 36) ((_ re.loop 1 4) (re.union (re.range "a" "f") (re.union (re.range "A" "F") (re.range "0" "9")))))))))))) re.all))) (re.++ re.all(re.+ (re.range "a" "z")) re.all) )))
;/[a-z]+/.test(match[1]) == false	
(check-sat)
(get-model)
(pop 1)
(push 1)
(assert (str.in.re var0 (re.* (re.range "\x01" "\xff"))))
(assert (str.in.re var0 (re.++ (re.*? re.allchar) (re.++ ((_ re.capture 1) (re.union (re.union (re.union (re.union (re.union (re.union (re.union (re.union (re.++ (str.to.re ":") (str.to.re ":")) (re.++ ((_ re.loop 0 7) ((_ re.capture 2) (re.++ ((_ re.capture 3) ((_ re.loop 1 4) (re.union (re.range "a" "f") (re.union (re.range "A" "F") (re.range "0" "9"))))) (str.to.re ":")))) ((_ re.capture 4) ((_ re.capture 5) ((_ re.loop 1 4) (re.union (re.range "a" "f") (re.union (re.range "A" "F") (re.range "0" "9")))))))) ((_ re.capture 6) (re.++ (str.to.re ":") ((_ re.loop 1 6) ((_ re.capture 7) (re.++ (str.to.re ":") ((_ re.capture 8) ((_ re.loop 1 4) (re.union (re.range "a" "f") (re.union (re.range "A" "F") (re.range "0" "9"))))))))))) ((_ re.capture 9) (re.++ ((_ re.loop 1 6) ((_ re.capture 10) (re.++ ((_ re.capture 11) ((_ re.loop 1 4) (re.union (re.range "a" "f") (re.union (re.range "A" "F") (re.range "0" "9"))))) (str.to.re ":")))) (str.to.re ":")))) ((_ re.capture 12) (re.++ ((_ re.capture 13) (re.++ ((_ re.capture 14) ((_ re.loop 1 4) (re.union (re.range "a" "f") (re.union (re.range "A" "F") (re.range "0" "9"))))) (str.to.re ":"))) ((_ re.loop 1 6) ((_ re.capture 15) (re.++ (str.to.re ":") ((_ re.capture 16) ((_ re.loop 1 4) (re.union (re.range "a" "f") (re.union (re.range "A" "F") (re.range "0" "9"))))))))))) ((_ re.capture 17) (re.++ ((_ re.loop 0 2) ((_ re.capture 18) (re.++ ((_ re.capture 19) ((_ re.loop 1 4) (re.union (re.range "a" "f") (re.union (re.range "A" "F") (re.range "0" "9"))))) (str.to.re ":")))) ((_ re.loop 1 5) ((_ re.capture 20) (re.++ (str.to.re ":") ((_ re.capture 21) ((_ re.loop 1 4) (re.union (re.range "a" "f") (re.union (re.range "A" "F") (re.range "0" "9"))))))))))) ((_ re.capture 22) (re.++ ((_ re.loop 0 3) ((_ re.capture 23) (re.++ ((_ re.capture 24) ((_ re.loop 1 4) (re.union (re.range "a" "f") (re.union (re.range "A" "F") (re.range "0" "9"))))) (str.to.re ":")))) ((_ re.loop 1 4) ((_ re.capture 25) (re.++ (str.to.re ":") ((_ re.capture 26) ((_ re.loop 1 4) (re.union (re.range "a" "f") (re.union (re.range "A" "F") (re.range "0" "9"))))))))))) ((_ re.capture 27) (re.++ ((_ re.loop 0 4) ((_ re.capture 28) (re.++ ((_ re.capture 29) ((_ re.loop 1 4) (re.union (re.range "a" "f") (re.union (re.range "A" "F") (re.range "0" "9"))))) (str.to.re ":")))) ((_ re.loop 1 3) ((_ re.capture 30) (re.++ (str.to.re ":") ((_ re.capture 31) ((_ re.loop 1 4) (re.union (re.range "a" "f") (re.union (re.range "A" "F") (re.range "0" "9"))))))))))) ((_ re.capture 32) (re.++ ((_ re.loop 0 5) ((_ re.capture 33) (re.++ ((_ re.capture 34) ((_ re.loop 1 4) (re.union (re.range "a" "f") (re.union (re.range "A" "F") (re.range "0" "9"))))) (str.to.re ":")))) ((_ re.loop 1 2) ((_ re.capture 35) (re.++ (str.to.re ":") ((_ re.capture 36) ((_ re.loop 1 4) (re.union (re.range "a" "f") (re.union (re.range "A" "F") (re.range "0" "9")))))))))))) re.all))))	; match!==null
(assert (str.in.re ((_ str.extract 1) var0 (re.++ (re.*? re.allchar) (re.++ ((_ re.capture 1) (re.union (re.union (re.union (re.union (re.union (re.union (re.union (re.union (re.++ (str.to.re ":") (str.to.re ":")) (re.++ ((_ re.loop 0 7) ((_ re.capture 2) (re.++ ((_ re.capture 3) ((_ re.loop 1 4) (re.union (re.range "a" "f") (re.union (re.range "A" "F") (re.range "0" "9"))))) (str.to.re ":")))) ((_ re.capture 4) ((_ re.capture 5) ((_ re.loop 1 4) (re.union (re.range "a" "f") (re.union (re.range "A" "F") (re.range "0" "9")))))))) ((_ re.capture 6) (re.++ (str.to.re ":") ((_ re.loop 1 6) ((_ re.capture 7) (re.++ (str.to.re ":") ((_ re.capture 8) ((_ re.loop 1 4) (re.union (re.range "a" "f") (re.union (re.range "A" "F") (re.range "0" "9"))))))))))) ((_ re.capture 9) (re.++ ((_ re.loop 1 6) ((_ re.capture 10) (re.++ ((_ re.capture 11) ((_ re.loop 1 4) (re.union (re.range "a" "f") (re.union (re.range "A" "F") (re.range "0" "9"))))) (str.to.re ":")))) (str.to.re ":")))) ((_ re.capture 12) (re.++ ((_ re.capture 13) (re.++ ((_ re.capture 14) ((_ re.loop 1 4) (re.union (re.range "a" "f") (re.union (re.range "A" "F") (re.range "0" "9"))))) (str.to.re ":"))) ((_ re.loop 1 6) ((_ re.capture 15) (re.++ (str.to.re ":") ((_ re.capture 16) ((_ re.loop 1 4) (re.union (re.range "a" "f") (re.union (re.range "A" "F") (re.range "0" "9"))))))))))) ((_ re.capture 17) (re.++ ((_ re.loop 0 2) ((_ re.capture 18) (re.++ ((_ re.capture 19) ((_ re.loop 1 4) (re.union (re.range "a" "f") (re.union (re.range "A" "F") (re.range "0" "9"))))) (str.to.re ":")))) ((_ re.loop 1 5) ((_ re.capture 20) (re.++ (str.to.re ":") ((_ re.capture 21) ((_ re.loop 1 4) (re.union (re.range "a" "f") (re.union (re.range "A" "F") (re.range "0" "9"))))))))))) ((_ re.capture 22) (re.++ ((_ re.loop 0 3) ((_ re.capture 23) (re.++ ((_ re.capture 24) ((_ re.loop 1 4) (re.union (re.range "a" "f") (re.union (re.range "A" "F") (re.range "0" "9"))))) (str.to.re ":")))) ((_ re.loop 1 4) ((_ re.capture 25) (re.++ (str.to.re ":") ((_ re.capture 26) ((_ re.loop 1 4) (re.union (re.range "a" "f") (re.union (re.range "A" "F") (re.range "0" "9"))))))))))) ((_ re.capture 27) (re.++ ((_ re.loop 0 4) ((_ re.capture 28) (re.++ ((_ re.capture 29) ((_ re.loop 1 4) (re.union (re.range "a" "f") (re.union (re.range "A" "F") (re.range "0" "9"))))) (str.to.re ":")))) ((_ re.loop 1 3) ((_ re.capture 30) (re.++ (str.to.re ":") ((_ re.capture 31) ((_ re.loop 1 4) (re.union (re.range "a" "f") (re.union (re.range "A" "F") (re.range "0" "9"))))))))))) ((_ re.capture 32) (re.++ ((_ re.loop 0 5) ((_ re.capture 33) (re.++ ((_ re.capture 34) ((_ re.loop 1 4) (re.union (re.range "a" "f") (re.union (re.range "A" "F") (re.range "0" "9"))))) (str.to.re ":")))) ((_ re.loop 1 2) ((_ re.capture 35) (re.++ (str.to.re ":") ((_ re.capture 36) ((_ re.loop 1 4) (re.union (re.range "a" "f") (re.union (re.range "A" "F") (re.range "0" "9")))))))))))) re.all))) (str.to.re "\x00")))
;match[1]==null
(check-sat)
(get-model)
(pop 1)
(push 1)
(assert (str.in.re var0 (re.* (re.range "\x01" "\xff"))))
(assert (not (str.in.re var0 (re.++ (re.*? re.allchar) (re.++ ((_ re.capture 1) (re.union (re.union (re.union (re.union (re.union (re.union (re.union (re.union (re.++ (str.to.re ":") (str.to.re ":")) (re.++ ((_ re.loop 0 7) ((_ re.capture 2) (re.++ ((_ re.capture 3) ((_ re.loop 1 4) (re.union (re.range "a" "f") (re.union (re.range "A" "F") (re.range "0" "9"))))) (str.to.re ":")))) ((_ re.capture 4) ((_ re.capture 5) ((_ re.loop 1 4) (re.union (re.range "a" "f") (re.union (re.range "A" "F") (re.range "0" "9")))))))) ((_ re.capture 6) (re.++ (str.to.re ":") ((_ re.loop 1 6) ((_ re.capture 7) (re.++ (str.to.re ":") ((_ re.capture 8) ((_ re.loop 1 4) (re.union (re.range "a" "f") (re.union (re.range "A" "F") (re.range "0" "9"))))))))))) ((_ re.capture 9) (re.++ ((_ re.loop 1 6) ((_ re.capture 10) (re.++ ((_ re.capture 11) ((_ re.loop 1 4) (re.union (re.range "a" "f") (re.union (re.range "A" "F") (re.range "0" "9"))))) (str.to.re ":")))) (str.to.re ":")))) ((_ re.capture 12) (re.++ ((_ re.capture 13) (re.++ ((_ re.capture 14) ((_ re.loop 1 4) (re.union (re.range "a" "f") (re.union (re.range "A" "F") (re.range "0" "9"))))) (str.to.re ":"))) ((_ re.loop 1 6) ((_ re.capture 15) (re.++ (str.to.re ":") ((_ re.capture 16) ((_ re.loop 1 4) (re.union (re.range "a" "f") (re.union (re.range "A" "F") (re.range "0" "9"))))))))))) ((_ re.capture 17) (re.++ ((_ re.loop 0 2) ((_ re.capture 18) (re.++ ((_ re.capture 19) ((_ re.loop 1 4) (re.union (re.range "a" "f") (re.union (re.range "A" "F") (re.range "0" "9"))))) (str.to.re ":")))) ((_ re.loop 1 5) ((_ re.capture 20) (re.++ (str.to.re ":") ((_ re.capture 21) ((_ re.loop 1 4) (re.union (re.range "a" "f") (re.union (re.range "A" "F") (re.range "0" "9"))))))))))) ((_ re.capture 22) (re.++ ((_ re.loop 0 3) ((_ re.capture 23) (re.++ ((_ re.capture 24) ((_ re.loop 1 4) (re.union (re.range "a" "f") (re.union (re.range "A" "F") (re.range "0" "9"))))) (str.to.re ":")))) ((_ re.loop 1 4) ((_ re.capture 25) (re.++ (str.to.re ":") ((_ re.capture 26) ((_ re.loop 1 4) (re.union (re.range "a" "f") (re.union (re.range "A" "F") (re.range "0" "9"))))))))))) ((_ re.capture 27) (re.++ ((_ re.loop 0 4) ((_ re.capture 28) (re.++ ((_ re.capture 29) ((_ re.loop 1 4) (re.union (re.range "a" "f") (re.union (re.range "A" "F") (re.range "0" "9"))))) (str.to.re ":")))) ((_ re.loop 1 3) ((_ re.capture 30) (re.++ (str.to.re ":") ((_ re.capture 31) ((_ re.loop 1 4) (re.union (re.range "a" "f") (re.union (re.range "A" "F") (re.range "0" "9"))))))))))) ((_ re.capture 32) (re.++ ((_ re.loop 0 5) ((_ re.capture 33) (re.++ ((_ re.capture 34) ((_ re.loop 1 4) (re.union (re.range "a" "f") (re.union (re.range "A" "F") (re.range "0" "9"))))) (str.to.re ":")))) ((_ re.loop 1 2) ((_ re.capture 35) (re.++ (str.to.re ":") ((_ re.capture 36) ((_ re.loop 1 4) (re.union (re.range "a" "f") (re.union (re.range "A" "F") (re.range "0" "9")))))))))))) re.all)))))	; match == null
(check-sat)
(get-model)
(pop 1)
(exit)
